problems/GracefulGears/GracefulGears-models/noch/O2/lingeling/model-n06-solution000001.eprime-solution
language ESSENCE' 1.0

letting colour_Function1D be [2, 15, 11, 8, 3, 17, 16, 7, 1, 12, 0, 10, 18; int(0..12)]
letting edgeID_Function1D be [13, 4, 3, 5, 14, 1, 9, 6, 11, 12, 10, 8, 16, 7, 15, 2, 17, 18; int(0..17)]
