problems/GracefulGears/GracefulGears-models/noch/O2/lingeling/model-n06-solution000001.solution
language Essence 1.3

letting colour be
        function(0 --> 2, 1 --> 15, 2 --> 11, 3 --> 8, 4 --> 3, 5 --> 17, 6 --> 16, 7 --> 7, 8 --> 1, 9 --> 12,
                 10 --> 0, 11 --> 10, 12 --> 18)
letting edgeID be
        function(0 --> 13, 1 --> 4, 2 --> 3, 3 --> 5, 4 --> 14, 5 --> 1, 6 --> 9, 7 --> 6, 8 --> 11, 9 --> 12,
                 10 --> 10, 11 --> 8, 12 --> 16, 13 --> 7, 14 --> 15, 15 --> 2, 16 --> 17, 17 --> 18)
